models/automatark25/complexnew/instance7972.smt2
(declare-const X String)
; /Dr[.]?|Phd[.]?|MBA/i
(assert (str.in.re X (re.union (re.++ (str.to.re "/Dr") (re.opt (str.to.re "."))) (re.++ (str.to.re "Phd") (re.opt (str.to.re "."))) (str.to.re "MBA/i\x0a"))))
; ((DK|FI|HU|LU|MT|SI)(-)?\d{8})|((BE|EE|DE|EL|LT|PT)(-)?\d{9})|((PL|SK)(-)?\d{10})|((IT|LV)(-)?\d{11})|((LT|SE)(-)?\d{12})|(AT(-)?U\d{8})|(CY(-)?\d{8}[A-Z])|(CZ(-)?\d{8,10})|(FR(-)?[\dA-HJ-NP-Z]{2}\d{9})|(IE(-)?\d[A-Z\d]\d{5}[A-Z])|(NL(-)?\d{9}B\d{2})|(ES(-)?[A-Z\d]\d{7}[A-Z\d])
(assert (not (str.in.re X (re.union (re.++ (re.union (str.to.re "DK") (str.to.re "FI") (str.to.re "HU") (str.to.re "LU") (str.to.re "MT") (str.to.re "SI")) (re.opt (str.to.re "-")) ((_ re.loop 8 8) (re.range "0" "9"))) (re.++ (re.union (str.to.re "BE") (str.to.re "EE") (str.to.re "DE") (str.to.re "EL") (str.to.re "LT") (str.to.re "PT")) (re.opt (str.to.re "-")) ((_ re.loop 9 9) (re.range "0" "9"))) (re.++ (re.union (str.to.re "PL") (str.to.re "SK")) (re.opt (str.to.re "-")) ((_ re.loop 10 10) (re.range "0" "9"))) (re.++ (re.union (str.to.re "IT") (str.to.re "LV")) (re.opt (str.to.re "-")) ((_ re.loop 11 11) (re.range "0" "9"))) (re.++ (re.union (str.to.re "LT") (str.to.re "SE")) (re.opt (str.to.re "-")) ((_ re.loop 12 12) (re.range "0" "9"))) (re.++ (str.to.re "AT") (re.opt (str.to.re "-")) (str.to.re "U") ((_ re.loop 8 8) (re.range "0" "9"))) (re.++ (str.to.re "CY") (re.opt (str.to.re "-")) ((_ re.loop 8 8) (re.range "0" "9")) (re.range "A" "Z")) (re.++ (str.to.re "CZ") (re.opt (str.to.re "-")) ((_ re.loop 8 10) (re.range "0" "9"))) (re.++ (str.to.re "FR") (re.opt (str.to.re "-")) ((_ re.loop 2 2) (re.union (re.range "0" "9") (re.range "A" "H") (re.range "J" "N") (re.range "P" "Z"))) ((_ re.loop 9 9) (re.range "0" "9"))) (re.++ (str.to.re "IE") (re.opt (str.to.re "-")) (re.range "0" "9") (re.union (re.range "A" "Z") (re.range "0" "9")) ((_ re.loop 5 5) (re.range "0" "9")) (re.range "A" "Z")) (re.++ (str.to.re "NL") (re.opt (str.to.re "-")) ((_ re.loop 9 9) (re.range "0" "9")) (str.to.re "B") ((_ re.loop 2 2) (re.range "0" "9"))) (re.++ (str.to.re "\x0aES") (re.opt (str.to.re "-")) (re.union (re.range "A" "Z") (re.range "0" "9")) ((_ re.loop 7 7) (re.range "0" "9")) (re.union (re.range "A" "Z") (re.range "0" "9")))))))
; /filename=[^\n]*\x2eets/i
(assert (not (str.in.re X (re.++ (str.to.re "/filename=") (re.* (re.comp (str.to.re "\x0a"))) (str.to.re ".ets/i\x0a")))))
; /filename=[^\n]*\x2echm/i
(assert (str.in.re X (re.++ (str.to.re "/filename=") (re.* (re.comp (str.to.re "\x0a"))) (str.to.re ".chm/i\x0a"))))
(check-sat)
